NAME : gaussian_missing_edges_with_de_seg1_seg2_seg3_random101.7332.tour
COMMENT : Length = 7332
COMMENT : Found by LKH [Keld Helsgaun] Fri Jul 12 16:37:49 2024
TYPE : TOUR
DIMENSION : 101
TOUR_SECTION
1
22
43
57
63
87
61
72
65
42
80
35
38
83
89
88
77
82
51
58
69
50
6
44
66
97
27
37
52
47
18
94
99
78
33
53
54
4
29
28
3
67
12
91
45
11
75
48
25
19
49
41
59
101
55
30
84
8
92
96
86
20
2
74
81
73
36
13
23
95
68
7
60
71
76
98
90
34
56
9
85
93
5
26
21
31
32
16
39
62
40
46
70
24
79
64
14
10
17
15
100
-1
EOF
